54 17 64 79 56 23 39 74 5 94 42 52 90 65 14 87 25 16 11 78 41 43 88 6 84 60 93 71 34 19 51 76 80 55 12 99 85 33 50 29 27 92 73 62 37 4 9 28 91 7 89 72 15 48 70 18 86 68 96 13 57 66 77 35 38 2 36 44 1 32 3 40 58 61 97 20 98 69 53 10 59 82 47 75 8 83 31 46 26 21 67 24 81 45 95 22 63 30 49 100